0
25 0
77 15 0
97 23 1 0
226 100 43 28 0
340 180 94 73 13 0
473 280 170 141 46 11 0
731 484 334 293 146 73 27 0
973 685 503 453 264 162 89 17 0
1224 898 687 629 402 273 175 63 14 0
1511 1146 906 840 571 417 292 140 58 15 0
1719 1327 1071 997 699 529 388 208 106 43 7 0
1912 1497 1223 1145 825 638 482 278 157 77 23 5 0
2282 1827 1522 1435 1075 859 676 430 274 163 79 41 16 0